NAME: kroE100
COMMENT: Quick (5min) local search tour for kroE100 (25118.30649461071)
TYPE: TOUR
DIMENSION: 100
TOUR_SECTION: 1 74 21 7 76 12 28 23 64 95 36 59 98 32 58 63 88 35 40 99 45 54 97 65 8 25 17 84 62 56 15 20 49 50 60 10 80 57 31 66 13 9 75 41 87 67 27 92 82 2 11 4 70 96 85 77 37 34 6 55 91 93 30 39 53 78 100 29 24 18 94 19 43 86 22 90 42 5 48 33 38 68 72 44 14 52 83 73 16 61 71 89 81 79 26 46 3 47 69 51 -1
EOF